000 000 000 000 -99 -99 -99 -99 -99 -99 -99 -99 -99 000 -99 000 000 000 000 000 000 000 000 000 000 000 000 000 001 000 000
000 000 000 000 000 000 -99 -99 -99 -99 -99 -99 -99 -99 000 -99 000 000 -99 000 000 000 000 000 000 000 000 000 000 001 000
000 -99 000 000 000 000 000 000 000 000 -99 -99 -99 -99 000 -99 -99 -99 -99 -99 000 000 000 000 000 000 000 000 000 003 001
000 -99 000 000 000 000 000 -99 000 000 -99 000 000 -99 000 000 -99 -99 -99 -99 -99 -99 000 000 000 000 000 000 000 001 001
000 -99 000 000 000 000 000 000 000 000 -99 000 000 000 -99 000 000 -99 -99 -99 000 000 000 000 000 000 000 000 000 -99 -99
000 000 000 000 000 000 000 000 000 -99 -99 -99 000 000 -99 000 000 -99 -99 -99 000 000 000 000 000 000 -99 000 -99 -99 -99
000 000 000 000 000 000 000 000 000 -99 -99 -99 000 000 -99 000 000 000 -99 -99 000 000 000 000 000 000 000 -99 -99 -99 -99
000 000 -99 000 000 000 000 000 000 -99 -99 -99 -99 000 -99 000 000 000 -99 -99 000 000 000 000 000 000 -99 -99 -99 -99 -99
000 -99 000 000 000 000 -99 000 000 000 -99 000 -99 -99 -99 -99 000 000 000 -99 000 -99 000 000 000 000 000 000 -99 000 -99
000 000 000 000 000 000 -99 -99 000 000 000 000 -99 -99 -99 -99 -99 000 000 -99 000 -99 -99 -99 000 000 000 000 -99 000 -99
000 000 000 000 000 000 000 000 000 000 000 000 000 -99 -99 -99 000 000 000 -99 -99 -99 -99 -99 -99 -99 000 000 -99 000 000
000 000 000 000 000 000 000 000 000 000 000 000 -99 -99 -99 000 000 000 000 -99 -99 -99 -99 000 -99 -99 000 000 -99 000 000
000 000 000 000 000 000 000 000 000 000 000 -99 -99 -99 -99 000 000 000 000 000 -99 -99 -99 -99 000 000 000 000 -99 000 000
000 000 000 000 000 000 000 000 000 -99 000 -99 -99 -99 -99 -99 000 000 000 000 -99 -99 -99 000 000 000 000 000 -99 000 000
000 000 000 000 000 000 000 -99 000 -99 -99 -99 -99 -99 -99 000 000 -99 -99 -99 -99 -99 -99 000 000 000 000 000 -99 000 000
000 000 000 000 000 000 000 000 000 -99 -99 -99 -99 000 -99 000 000 -99 000 -99 -99 -99 -99 000 000 000 000 000 000 000 000
000 000 -99 -99 000 000 -99 000 000 000 -99 -99 -99 000 000 000 000 000 000 -99 -99 -99 000 000 000 000 000 000 000 000 000
000 000 000 -99 -99 -99 -99 000 000 -99 -99 -99 -99 000 000 000 000 000 -99 -99 -99 000 000 000 000 -99 -99 -99 -99 000 000
000 000 000 -99 -99 -99 000 000 000 -99 -99 -99 -99 000 000 000 000 000 000 -99 000 000 000 000 000 -99 -99 -99 -99 000 -99
000 000 000 -99 000 000 -99 000 000 000 -99 -99 -99 000 000 000 000 000 000 000 000 000 000 -99 -99 -99 -99 -99 -99 -99 -99
000 000 000 000 000 000 -99 000 000 000 -99 -99 -99 -99 -99 000 000 000 000 000 000 000 000 -99 -99 -99 -99 -99 -99 -99 -99
000 000 000 000 000 000 -99 000 000 000 -99 -99 -99 -99 -99 000 000 000 000 000 000 000 000 -99 -99 -99 -99 -99 -99 -99 -99
000 000 000 000 000 000 -99 000 000 000 -99 -99 -99 -99 000 000 000 000 000 000 000 000 000 -99 -99 -99 -99 -99 -99 -99 -99
000 000 000 000 000 000 -99 000 000 000 -99 -99 -99 000 000 000 000 000 000 000 000 000 000 -99 -99 -99 -99 -99 -99 -99 000
000 000 000 000 000 000 -99 000 000 000 -99 -99 000 000 000 000 000 000 000 000 000 000 000 -99 -99 -99 -99 -99 -99 -99 000
000 000 000 000 000 000 000 000 000 -99 -99 -99 000 000 000 000 000 000 000 000 000 000 000 -99 -99 -99 -99 -99 -99 -99 000
000 000 000 000 000 000 000 000 000 -99 -99 -99 -99 -99 -99 000 000 000 000 000 000 000 000 -99 -99 -99 -99 -99 -99 -99 000
000 000 000 000 000 000 000 000 000 000 -99 -99 -99 -99 000 000 000 000 000 000 000 000 000 -99 -99 -99 -99 -99 -99 -99 -99
000 000 000 000 000 000 000 000 000 000 -99 -99 -99 -99 000 000 000 000 000 000 000 000 -99 -99 -99 -99 -99 -99 -99 -99 -99
000 000 000 000 000 -99 000 000 000 000 -99 -99 -99 000 000 000 000 000 000 000 000 000 -99 000 000 000 000 -99 -99 -99 -99
000 000 000 000 000 000 000 000 000 000 -99 -99 -99 -99 000 000 000 000 000 001 000 000 -99 000 000 000 001 -99 -99 -99 001
000 000 000 000 000 000 000 000 000 -99 -99 -99 -99 -99 000 -99 000 000 001 001 000 000 001 000 000 000 001 003 001 002 002
000 000 000 000 000 000 000 000 000 000 -99 -99 -99 000 000 -99 000 000 000 002 000 001 001 001 001 001 003 004 005 003 006
-99 000 000 000 000 000 000 000 000 000 -99 -99 -99 000 000 000 000 000 000 002 001 001 002 003 002 001 003 005 007 008 009
000 000 000 000 000 000 000 000 000 000 -99 -99 -99 000 000 000 000 000 001 002 005 003 002 003 004 002 004 006 007 009 008
000 000 000 000 000 000 000 000 000 000 000 -99 -99 -99 000 000 000 000 001 004 011 005 003 006 003 002 006 005 006 008 010
000 000 000 000 000 -99 -99 000 000 000 -99 -99 -99 -99 -99 000 000 000 003 011 013 006 006 006 002 003 006 008 006 003 004
000 000 000 000 000 -99 -99 -99 -99 -99 -99 -99 -99 -99 000 000 000 000 001 009 010 007 014 007 006 003 007 010 004 002 002
000 000 000 000 000 000 -99 -99 -99 -99 -99 -99 -99 000 000 000 000 000 002 004 010 012 011 007 011 003 006 007 006 003 002
000 000 000 000 000 -99 -99 -99 -99 -99 -99 -99 000 000 000 000 -99 000 000 001 003 005 009 015 007 003 006 007 006 006 003
000 000 000 000 000 -99 -99 -99 -99 -99 -99 000 000 000 000 000 -99 -99 000 001 002 006 018 014 005 003 009 006 007 014 004
000 000 -99 000 -99 -99 -99 -99 -99 -99 000 000 000 000 000 000 -99 000 000 000 000 002 009 007 004 005 021 004 007 014 007
000 000 -99 -99 -99 -99 -99 -99 -99 000 000 000 000 000 000 000 -99 000 000 000 000 001 003 003 002 005 023 003 004 010 013
000 -99 -99 -99 -99 -99 -99 -99 -99 -99 000 000 000 000 000 000 000 000 000 000 000 000 001 000 001 004 008 001 003 008 019
-99 -99 -99 -99 -99 -99 -99 -99 -99 000 -99 000 000 000 000 000 -99 000 000 000 000 000 000 000 000 003 001 001 002 006 011
000 -99 -99 -99 000 -99 -99 -99 -99 -99 000 000 000 000 000 -99 -99 000 000 000 -99 -99 000 000 000 000 000 001 001 005 003
000 -99 -99 -99 000 -99 -99 -99 -99 -99 000 000 000 000 -99 -99 -99 000 000 000 -99 -99 000 000 000 000 000 000 -99 001 001
-99 -99 -99 000 000 -99 -99 -99 -99 -99 -99 000 000 -99 -99 -99 -99 000 000 -99 -99 000 000 000 000 000 000 -99 000 000 000
-99 -99 000 000 -99 -99 -99 -99 -99 -99 -99 -99 000 000 -99 -99 -99 -99 000 -99 -99 000 000 000 -99 -99 -99 -99 000 000 -99
-99 -99 000 -99 -99 -99 -99 -99 -99 -99 -99 000 000 000 -99 -99 -99 -99 000 -99 -99 000 -99 -99 -99 -99 -99 000 000 -99 -99
-99 001 000 -99 -99 -99 -99 -99 -99 -99 -99 000 -99 -99 -99 -99 -99 -99 -99 -99 -99 -99 -99 -99 -99 -99 -99 000 000 -99 -99
000 001 000 -99 -99 -99 -99 -99 -99 -99 -99 -99 -99 -99 -99 -99 -99 -99 -99 -99 -99 -99 -99 -99 -99 -99 -99 -99 -99 -99 -99
000 000 -99 -99 -99 -99 -99 -99 -99 -99 -99 -99 -99 -99 -99 -99 -99 000 000 -99 -99 -99 -99 -99 -99 -99 -99 -99 -99 -99 -99
000 -99 -99 -99 -99 -99 -99 -99 -99 -99 -99 -99 -99 -99 -99 -99 000 000 -99 -99 -99 -99 -99 -99 -99 -99 -99 -99 -99 -99 -99
-99 -99 -99 -99 -99 -99 -99 -99 -99 -99 -99 -99 -99 -99 -99 000 000 -99 -99 -99 -99 -99 -99 -99 -99 -99 -99 -99 -99 -99 -99
